========================================================== 
File name: C:\DEGR\assets\definitions\MSRCPSP_Gen\200_5_64_10_D.def
Creation date: Wed May 03 10:46:52 CEST 2023
Website: http://imopse.ii.pwr.edu.pl/ 
Reference: 
Myszkowski P. B., Skowronski M. E., Olech L., Oslizlo K., 
Hybrid Ant Colony Optimization in solving Multi-Skill Resource-Constrained Project Scheduling Problem, 
Soft Computing, DOI: DOI 10.1007/s00500-014-1455-x 
========================================================== 
General characteristics: 
Tasks: 200
Resources: 5
Precedence relations: 64
Number of skill types: 10
========================================================== 
ResourceID 	 Salary 	 Skills 
1	 	 	49.4	 	 Q9: 0 	  Q8: 2 	  Q3: 2 	  Q1: 0 	 
2	 	 	81.6	 	 Q2: 0 	  Q6: 2 	 
3	 	 	10.6	 	 Q5: 0 	  Q1: 2 	  Q0: 1 	  Q3: 0 	 
4	 	 	79.8	 	 Q2: 2 	  Q4: 3 	  Q1: 2 	  Q8: 2 	  Q5: 2 	  Q0: 0 	  Q7: 0 	  Q9: 3 	 
5	 	 	94.6	 	 Q1: 3 	  Q7: 0 	  Q9: 3 	  Q6: 2 	  Q8: 1 	 
========================================================== 
TaskID 	 Duration 	 Skill 	 Predecessor IDs 
1	17	Q2:	0
2	18	Q9:	0
3	17	Q2:	2
4	28	Q6:	2
5	33	Q5:	2
6	26	Q2:	0
7	34	Q3:	0
8	28	Q1:	3
9	26	Q9:	3
10	30	Q7:	0
11	9	Q4:	3
12	21	Q3:	2
13	36	Q6:	2	10
14	33	Q8:	1
15	28	Q8:	1
16	23	Q9:	3
17	33	Q7:	0
18	11	Q2:	2
19	28	Q0:	0
20	35	Q3:	2
21	36	Q5:	2
22	12	Q3:	0
23	28	Q6:	2
24	37	Q5:	0
25	23	Q5:	2
26	26	Q2:	2
27	36	Q7:	0
28	16	Q7:	0
29	17	Q9:	3	26
30	35	Q6:	2
31	39	Q0:	1
32	35	Q3:	0
33	19	Q9:	3
34	13	Q7:	0
35	32	Q1:	0
36	28	Q5:	2
37	21	Q1:	3
38	28	Q6:	2
39	32	Q8:	1
40	19	Q8:	2
41	24	Q2:	0
42	35	Q0:	1
43	38	Q9:	3
44	13	Q1:	3
45	40	Q6:	2
46	13	Q0:	0
47	20	Q8:	1
48	18	Q2:	2	31
49	29	Q1:	2
50	40	Q9:	0	19
51	40	Q0:	1
52	28	Q2:	0
53	9	Q1:	2
54	32	Q1:	0
55	28	Q6:	2
56	17	Q5:	2
57	16	Q8:	1	17
58	21	Q7:	0
59	15	Q1:	0
60	36	Q8:	1
61	36	Q0:	0
62	40	Q8:	2
63	39	Q6:	2
64	9	Q1:	0
65	13	Q4:	3
66	24	Q5:	2
67	27	Q3:	2
68	30	Q7:	0
69	14	Q8:	2
70	33	Q2:	2
71	15	Q5:	0
72	17	Q4:	3
73	22	Q2:	2
74	32	Q1:	0	32
75	14	Q1:	3
76	19	Q9:	0
77	35	Q3:	2
78	28	Q6:	2
79	15	Q2:	2
80	16	Q8:	1
81	40	Q1:	0
82	10	Q4:	3	52
83	23	Q5:	2
84	25	Q9:	0
85	37	Q4:	3
86	40	Q2:	2
87	19	Q5:	2	71
88	11	Q8:	1
89	36	Q5:	2
90	37	Q2:	0
91	16	Q8:	2
92	33	Q5:	2
93	26	Q0:	1
94	18	Q3:	2
95	16	Q1:	0
96	30	Q3:	0
97	20	Q0:	0
98	36	Q2:	0
99	25	Q9:	0	14
100	33	Q2:	2
101	21	Q8:	2
102	15	Q1:	0
103	29	Q0:	1	20
104	10	Q8:	1
105	29	Q6:	2
106	11	Q5:	0
107	26	Q0:	0
108	16	Q2:	2
109	23	Q3:	0	55
110	36	Q0:	0	94
111	18	Q1:	2
112	9	Q4:	3
113	38	Q2:	2
114	18	Q5:	0
115	18	Q2:	2	9
116	16	Q8:	1
117	9	Q3:	0
118	17	Q6:	2	26
119	24	Q8:	1	45
120	31	Q5:	2
121	10	Q7:	0
122	29	Q2:	0
123	28	Q8:	2	41
124	39	Q2:	0
125	38	Q1:	2	46
126	22	Q8:	1
127	40	Q4:	3
128	19	Q3:	2	31
129	24	Q1:	3
130	26	Q9:	3
131	12	Q0:	0
132	29	Q2:	2
133	10	Q5:	0	124
134	27	Q3:	0	22
135	23	Q6:	2
136	30	Q9:	0	56	79
137	25	Q1:	2
138	22	Q9:	3	14
139	20	Q1:	2	91
140	37	Q0:	1	22
141	10	Q4:	3
142	16	Q1:	0
143	29	Q8:	2
144	16	Q6:	2	133	27
145	34	Q5:	2	120
146	23	Q8:	2
147	16	Q9:	0	116
148	28	Q3:	0
149	30	Q8:	1	107
150	33	Q3:	2	142
151	26	Q5:	2	145
152	25	Q0:	0	97
153	27	Q6:	2	94	45
154	23	Q0:	0
155	9	Q1:	0	71
156	21	Q1:	2	74
157	18	Q0:	0	30
158	15	Q1:	3
159	38	Q4:	3	4	43
160	27	Q1:	2
161	31	Q8:	2
162	14	Q9:	3	121
163	40	Q9:	0
164	11	Q2:	2
165	40	Q5:	2
166	16	Q1:	0	134	115
167	25	Q6:	2	6
168	18	Q4:	3	158
169	28	Q7:	0	52
170	17	Q1:	0	73	66
171	23	Q8:	2
172	38	Q1:	0	165
173	9	Q9:	0
174	19	Q4:	3
175	33	Q1:	0	14	19
176	22	Q4:	3
177	16	Q3:	2
178	25	Q0:	0	11
179	28	Q1:	0
180	10	Q7:	0
181	11	Q6:	2	118
182	35	Q8:	1
183	20	Q0:	1	98
184	33	Q8:	1
185	27	Q6:	2
186	20	Q0:	1
187	20	Q0:	0	51	154
188	39	Q2:	2
189	32	Q1:	2	36
190	27	Q1:	0
191	17	Q2:	0
192	28	Q9:	3
193	14	Q4:	3	171	46
194	11	Q2:	0
195	12	Q9:	3
196	30	Q1:	2
197	11	Q9:	3	171	81
198	29	Q8:	1
199	15	Q5:	2	20	14
200	17	Q1:	3	80
========================================================== 